param set_len = 26;
param target_sum = 8268134832;
param values := [1] 396394986 [2] 673035958 [3] 621119026 [4] 279905545 [5] 1039444563 [6] 183244490 [7] 612105319 [8] 226893020 [9] 28536214 [10] 758277445 [11] 184888792 [12] 120809250 [13] 1042660805 [14] 861960668 [15] 1033551010 [16] 66268412 [17] 931639203 [18] 41715018 [19] 446069898 [20] 99826692 [21] 654341210 [22] 971734778 [23] 396664280 [24] 1057023679 [25] 729468313 [26] 711747123 ;
